s td 15 46 60
b 1 1 3 5 8 9 10 12 13 14 15 16 17 18 20 21 22 23 24 25 26 27 28 30 31 32 33 34 36 37 38 41 42 43 44 45 46 48 49 50 51 52 53 54 57 58 60
b 2 3 5 8 9 10 12 13 14 15 16 17 18 20 21 22 23 24 25 26 27 28 30 31 32 33 34 36 37 38 41 42 43 44 45 46 48 49 50 51 52 53 54 57 58 59 60
b 3 3 5 8 9 10 11 12 13 14 15 16 17 18 20 21 22 23 25 26 27 28 30 31 32 33 34 36 37 38 41 42 43 44 45 46 48 49 50 51 52 53 54 57 58 59 60
b 4 2 5 8 9 10 11 12 13 14 21 23 25 26 28 31 33 34 36 37 38 42 44 48 51 52 54 57 58 59 60
b 5 3 5 8 9 10 11 12 13 14 15 16 17 18 20 21 22 23 25 26 27 28 29 30 31 32 33 34 37 38 41 42 43 44 45 46 48 49 50 51 52 53 54 58 59 60
b 6 3 5 8 9 10 11 12 13 14 15 16 17 18 21 22 23 25 28 29 30 32 33 34 41 42 43 44 45 46 47 48 49 50 51 52 53 54 58 59 60
b 7 3 5 8 9 10 11 12 14 15 16 17 18 21 22 23 25 28 29 30 32 33 34 40 41 42 43 44 45 46 47 48 49 50 52 54 58 59
b 8 3 5 8 10 11 15 16 18 21 29 30 32 33 40 42 43 44 45 46 47 48 49 50 52 54 55
b 9 1 3 5 8 9 10 12 13 14 15 16 17 18 21 22 23 24 25 26 27 28 30 31 32 33 34 36 37 38 41 42 43 44 45 46 48 49 50 51 52 53 54 56 57 58 60
b 10 1 4 9 10 13 14 17 22 34 37 41 45 46 48 49 50 51 52 54 56 57
b 11 1 3 5 8 10 12 13 14 15 16 17 18 21 22 23 24 25 26 27 28 30 31 32 33 34 35 36 37 38 41 42 43 44 45 46 48 49 50 51 52 53 56 57 58 60
b 12 1 3 5 10 12 13 14 15 16 18 19 21 22 23 24 25 26 27 28 30 31 32 33 34 35 36 37 38 42 43 44 45 46 48 49 50 51 52 53 56 57 58 60
b 13 1 3 5 6 10 12 14 15 16 18 19 21 22 23 24 25 26 27 28 30 31 33 34 35 36 37 38 42 44 45 46 48 49 50 51 53 56 57 58 60
b 14 1 3 5 6 7 10 12 16 18 19 24 26 28 30 31 33 34 35 42 46 48 49 50 51 53 56 57 58 60
b 15 1 3 12 15 16 19 21 22 24 25 30 33 35 36 38 39 42 43 44 45 49 50 51 52 53 56
1 2
1 9
2 3
3 4
3 5
5 6
6 7
7 8
9 10
9 11
11 12
12 13
12 15
13 14
